0	182	43	135	184	88	74	151	31	69	100	
76	0	34	127	40	107	97	67	20	175	87	
124	187	0	85	130	98	196	47	62	60	38	
95	147	33	0	194	181	75	126	62	137	117	
119	40	77	102	0	197	73	28	101	192	58	
161	54	187	178	65	0	42	38	106	135	83	
27	60	106	70	52	188	0	98	186	71	66	
145	105	116	121	95	78	68	0	159	75	69	
94	160	149	140	106	109	158	109	0	155	150	
177	146	126	151	182	84	42	115	92	0	102	
79	144	173	149	137	125	145	178	103	178	0	
